n_res = 4;
rcap = [28, 26, 41, 55];
rtype = [1, 1, 2, 2];
n_tasks = 16;
modes = [ {1, 2, 3}, {4, 5, 6}, {7, 8, 9}, {10, 11, 12}, {13, 14, 15}, {16, 17, 18}, {19, 20, 21}, {22, 23, 24}, {25, 26, 27}, {28, 29, 30}, {31, 32, 33}, {34, 35, 36}, {37, 38, 39}, {40, 41, 42}, {43, 44, 45}, {46, 47, 48} ];
succ = [ {6, 8, 9}, {4, 6, 9}, {5, 6, 10}, {5, 7, 8}, {11, 12, 13}, {7, 11}, {12, 13, 15}, {11, 14}, {10, 13, 15}, {12, 14}, {15, 16}, {16}, {14, 16}, {}, {}, {} ];
n_opt = 48;
dur = [2, 2, 10, 4, 10, 10, 3, 4, 10, 2, 9, 10, 2, 6, 9, 6, 9, 9, 1, 1, 9, 1, 3, 10, 6, 7, 8, 1, 3, 5, 2, 2, 9, 1, 6, 8, 6, 7, 9, 4, 5, 6, 7, 9, 10, 7, 7, 8];
rreq = [|  5,  5,  3,  7,  5,  4,  5,  5,  4,  5,  3,  3,  6,  6,  3,  4,  4,  4,  3,  3,  3, 10,  9,  9,  8,  7,  6,  6,  4,  4,  4,  3,  2,  7,  7,  6,  5,  3,  3,  7,  5,  3,  5,  4,  4,  5,  7,  2
        |  3,  3,  2,  3,  2,  1,  8,  8,  8,  4,  4,  3,  7,  6,  6,  5,  5,  4,  7,  7,  6, 10,  7,  6,  4,  3,  3,  8,  8,  7,  3,  4,  3,  7,  5,  4,  7,  5,  3,  9,  7,  7,  4,  4,  2,  7,  6,  5
        |  6,  0,  6,  7,  0,  0,  4,  0,  4,  4,  3,  3,  2,  0,  1, 10,  0,  0,  4,  0,  0,  0,  0,  0,  7,  4,  0,  0,  6,  0,  0,  0,  8,  0,  0,  0,  5,  0,  4,  0,  0,  0,  9,  9,  6,  0,  0,  0
        |  0,  7,  0,  0,  5,  8,  0,  9,  0,  0,  0,  0,  0,  8,  0,  0,  1,  2,  0,  6,  2,  7,  6,  6,  0,  0,  7,  3,  0,  3,  7,  9,  0,  8,  7,  5,  0,  7,  0,  6,  5,  5,  0,  0,  0,  4,  3,  3 |];
